* UNL main file generated by charmmgen
* author: Victor Bazterra 2004 CHPC
* 

Read rtf card name SOL_CHARMM.rtf

Read param card name SOL_CHARMM.prm

Read sequence card
* Reading the coordinates of residue
* 
    1
UNL
Generate UNL setup
Read coor card free
* Residues coordinate
* 
    5
    1    1 UNL  Cl     0.95700  -0.08800   0.03400
    2    1 UNL  C      2.72900  -0.08600  -0.00100
    3    1 UNL  Cl1    3.33600  -1.48400  -0.90500
    4    1 UNL  Cl2    3.33600   1.42200  -0.70600
    5    1 UNL  H      3.09300  -0.15600   1.02700
Energy ihbfrq 0 inbfrq -1
Open write card unit 14 name tmp.out
Write energy card unit 14
* UNL energy before the optimization
* 
Minimise Abnr Nstep 5000 Tolgrd 0.00001
Write energy card unit 14
* UNL energy after optimization
* 
Write coor card unit 14
* UNL energy after optimization
* 
